000 000 000 000 -99 000 000 000 -99 -99 -99 -99 000 000 000 -99 -99 -99 000 000 000 000 -99 000 000 000 000 000 -99 -99 -99
000 000 000 000 000 000 000 000 000 -99 -99 -99 -99 000 000 000 -99 -99 -99 -99 -99 000 -99 -99 000 000 -99 -99 -99 -99 -99
-99 000 000 000 000 000 000 000 000 000 -99 000 -99 -99 000 000 000 -99 -99 000 000 -99 -99 -99 -99 000 -99 -99 -99 -99 -99
000 000 000 000 000 000 000 000 000 000 000 000 000 000 000 000 000 -99 -99 000 000 000 -99 -99 -99 -99 -99 -99 -99 -99 -99
000 000 000 000 000 000 000 000 000 000 -99 000 000 -99 -99 000 000 000 -99 -99 000 000 -99 000 -99 -99 -99 -99 -99 -99 -99
000 000 000 000 000 000 000 000 -99 000 -99 -99 000 -99 000 000 000 000 -99 -99 000 000 000 000 000 -99 -99 -99 -99 -99 -99
000 000 000 000 000 000 000 -99 -99 000 000 -99 -99 -99 000 000 000 000 -99 000 000 000 -99 000 000 -99 -99 -99 -99 -99 -99
000 000 -99 000 000 000 000 -99 -99 000 000 -99 -99 -99 000 000 000 -99 -99 000 000 000 000 000 000 -99 -99 -99 -99 -99 -99
000 000 000 000 000 000 000 000 000 000 000 000 -99 -99 000 000 000 -99 -99 000 000 -99 -99 000 000 -99 -99 -99 -99 -99 -99
000 000 000 000 000 000 000 000 000 000 000 000 -99 -99 000 000 -99 000 000 000 000 000 -99 -99 000 000 -99 -99 -99 -99 -99
000 000 -99 000 000 000 -99 000 000 000 000 000 000 000 000 000 -99 -99 000 000 000 000 -99 -99 000 000 -99 -99 -99 -99 -99
000 -99 000 000 000 000 000 000 000 000 000 000 000 000 000 000 -99 -99 -99 000 000 000 -99 -99 000 000 -99 -99 -99 -99 -99
000 000 000 000 000 000 000 000 000 000 000 000 000 000 -99 -99 000 -99 -99 000 000 000 -99 -99 000 000 -99 -99 000 000 -99
000 000 000 000 000 000 000 000 000 -99 -99 000 000 000 -99 -99 000 -99 -99 -99 000 000 -99 000 000 000 -99 000 000 000 -99
000 000 000 000 000 000 000 000 000 -99 -99 000 000 000 -99 -99 -99 -99 000 000 -99 -99 -99 000 000 000 -99 -99 000 -99 -99
000 000 000 000 000 000 000 000 000 -99 -99 -99 000 000 -99 -99 000 000 -99 -99 -99 -99 -99 000 000 000 -99 -99 000 000 -99
000 -99 000 000 -99 000 000 000 000 -99 -99 -99 -99 -99 -99 -99 000 000 000 -99 -99 000 -99 000 000 000 -99 -99 -99 000 000
000 000 000 000 -99 000 000 000 000 000 -99 -99 -99 -99 -99 000 000 000 000 000 -99 000 000 -99 000 000 -99 -99 -99 000 000
000 000 000 000 -99 -99 -99 000 000 000 -99 000 -99 000 -99 000 000 000 000 000 000 000 000 -99 000 -99 -99 -99 -99 000 000
000 000 000 000 -99 -99 -99 000 000 000 -99 000 000 000 000 000 000 000 000 000 000 000 000 -99 -99 -99 -99 -99 -99 -99 000
000 000 000 000 000 -99 -99 -99 000 000 -99 000 000 000 000 000 000 000 000 000 000 000 000 -99 -99 -99 -99 -99 -99 -99 -99
000 000 000 000 000 000 -99 000 000 -99 -99 000 000 000 000 000 000 000 000 000 000 000 000 -99 -99 -99 -99 -99 -99 -99 -99
000 000 000 000 000 000 000 000 -99 -99 -99 000 000 000 000 000 000 000 000 000 000 000 000 -99 -99 -99 -99 -99 -99 -99 -99
000 000 000 000 000 000 000 000 000 -99 -99 -99 000 000 000 000 000 000 000 000 000 000 000 -99 -99 -99 -99 -99 -99 -99 -99
000 000 000 000 000 000 000 000 000 -99 -99 -99 000 000 000 000 000 -99 000 000 000 000 000 -99 -99 -99 -99 -99 -99 -99 -99
000 000 000 000 000 000 000 000 000 000 -99 -99 000 000 000 000 000 000 000 000 000 000 000 -99 -99 -99 -99 -99 -99 000 000
000 000 000 000 000 000 000 000 000 000 -99 -99 -99 000 -99 000 000 000 000 000 000 000 000 -99 -99 -99 -99 -99 -99 000 000
000 000 000 000 000 000 000 000 000 000 -99 -99 -99 -99 000 000 000 000 000 000 -99 000 000 -99 -99 -99 -99 -99 -99 -99 000
000 000 000 000 000 000 -99 000 000 000 -99 -99 -99 -99 000 000 000 000 000 000 -99 000 -99 -99 -99 -99 -99 -99 -99 -99 000
000 000 000 000 000 000 -99 -99 000 000 -99 -99 -99 000 000 000 000 000 000 000 -99 000 -99 -99 -99 -99 -99 -99 -99 -99 -99
000 000 000 000 000 -99 000 000 000 000 -99 -99 000 000 000 -99 000 000 000 000 -99 000 000 000 -99 -99 -99 -99 -99 -99 000
000 000 000 000 000 -99 000 000 000 -99 -99 -99 000 000 000 -99 000 000 000 -99 000 000 000 000 000 -99 -99 -99 -99 -99 000
000 000 000 000 000 000 000 000 000 -99 -99 -99 -99 -99 -99 -99 000 000 000 -99 -99 000 000 000 000 000 -99 000 000 000 000
000 000 000 000 000 000 -99 000 000 000 -99 -99 -99 -99 -99 000 000 000 000 -99 000 000 000 000 000 000 000 000 000 000 000
000 000 000 000 000 000 -99 000 000 000 000 -99 000 000 000 000 000 000 000 000 000 000 000 000 000 000 000 000 000 000 000
000 000 000 000 000 000 -99 000 000 000 000 000 000 000 -99 000 000 000 000 000 000 000 000 000 000 000 000 000 000 000 -99
000 000 000 000 000 000 000 000 000 000 000 -99 000 000 000 000 000 000 000 000 000 000 000 000 000 000 000 000 000 -99 000
000 -99 000 000 000 000 000 000 000 000 -99 000 000 000 000 000 000 000 000 -99 000 000 000 000 000 000 000 000 -99 -99 000
000 000 000 000 000 -99 000 000 -99 000 -99 000 000 000 000 000 000 000 000 -99 000 000 000 000 000 -99 000 000 -99 -99 -99
000 000 000 000 -99 -99 000 000 -99 -99 -99 000 000 000 000 000 000 000 000 -99 000 -99 000 000 000 000 000 000 -99 -99 -99
000 000 000 000 000 000 000 -99 -99 -99 000 000 000 000 -99 -99 000 000 000 000 -99 000 000 000 000 000 000 000 -99 -99 -99
000 000 000 000 000 -99 -99 -99 -99 000 000 000 000 -99 000 000 -99 000 000 000 -99 000 000 000 000 000 000 -99 -99 -99 -99
000 000 000 000 -99 -99 -99 -99 -99 000 000 000 -99 000 000 000 -99 -99 000 000 -99 -99 000 000 000 000 000 -99 -99 -99 000
000 000 -99 -99 -99 000 -99 -99 -99 -99 000 000 000 000 000 000 000 000 -99 000 000 000 000 000 000 000 000 000 -99 -99 000
000 000 -99 -99 -99 -99 000 000 -99 -99 -99 000 000 000 000 000 -99 -99 -99 000 000 000 000 000 000 000 000 000 -99 -99 -99
000 -99 -99 -99 -99 -99 -99 -99 -99 -99 -99 000 000 000 000 000 -99 -99 -99 -99 000 000 000 -99 -99 000 000 000 -99 -99 000
-99 -99 -99 -99 -99 -99 -99 -99 -99 -99 -99 000 001 000 -99 -99 -99 000 -99 000 000 000 000 -99 000 000 000 -99 -99 -99 000
-99 -99 -99 -99 -99 -99 -99 -99 -99 -99 002 003 002 -99 -99 -99 -99 000 -99 000 000 000 -99 -99 000 000 -99 -99 -99 -99 -99
-99 -99 -99 -99 -99 -99 -99 -99 -99 000 001 001 -99 -99 -99 -99 000 -99 -99 000 000 000 000 000 000 000 -99 -99 -99 -99 -99
-99 -99 -99 -99 -99 -99 -99 -99 000 000 000 000 -99 -99 -99 -99 000 -99 000 000 000 -99 -99 000 000 -99 -99 -99 -99 -99 -99
-99 -99 -99 -99 -99 -99 -99 -99 000 000 000 -99 -99 -99 -99 -99 -99 000 000 000 -99 -99 -99 000 000 000 -99 -99 -99 -99 -99
-99 -99 -99 -99 -99 -99 -99 -99 000 000 000 -99 -99 -99 -99 000 000 000 000 000 -99 -99 -99 -99 000 000 -99 -99 -99 -99 -99
-99 -99 -99 -99 -99 -99 -99 -99 -99 -99 000 000 -99 -99 -99 000 000 000 000 000 000 -99 -99 000 000 -99 -99 -99 -99 -99 -99
-99 -99 -99 -99 -99 -99 -99 -99 -99 -99 -99 000 -99 -99 -99 000 000 000 000 000 -99 -99 -99 -99 -99 -99 -99 -99 -99 -99 -99
-99 -99 -99 -99 -99 -99 -99 -99 -99 -99 -99 -99 000 -99 -99 000 000 000 -99 -99 -99 -99 -99 -99 -99 -99 -99 -99 -99 -99 -99
